NAME: Random_50_4
ELLAPSED_TIME_(ms): 440
TOUR_SIZE: 802
TOUR_SECTION
0
4
27
17
33
28
32
31
6
40
15
49
3
11
8
47
19
2
24
21
18
45
5
42
43
38
30
13
10
12
34
9
35
25
36
48
16
44
7
26
41
46
37
22
1
23
39
29
14
20
0
EOF
